NAME : rnd19_50.tsp.tsp.optbc.tour
TYPE : TOUR
DIMENSION : 50
TOUR_SECTION
1
46
3
5
13
45
10
4
32
2
18
21
27
14
23
40
12
42
25
20
30
7
9
22
37
38
39
35
31
26
28
34
49
16
8
29
48
11
50
17
43
19
15
6
47
24
41
44
36
33
-1